c description: Random 5-CNF over 15 variables and 30 clauses
c generator: CNFgen (0.9.0)
c copyright: (C) 2012-2020 Massimo Lauria <massimo.lauria@uniroma1.it>
c url: https://massimolauria.net/cnfgen
c
p cnf 15 30
-7 -8 -12 -14 15 0
4 6 -9 -10 14 0
5 9 10 -11 14 0
-1 -2 3 5 -9 0
2 -6 -11 13 15 0
-1 -5 -9 -12 -14 0
-2 -3 8 -14 -15 0
1 -3 -4 -10 13 0
3 9 -10 -14 -15 0
1 4 -5 9 15 0
3 -4 -7 11 15 0
-3 -4 7 8 -12 0
3 -8 -11 -13 -15 0
5 -10 11 14 -15 0
2 -9 12 -14 15 0
-1 -3 6 -12 15 0
-5 10 11 -12 13 0
8 -9 10 -13 14 0
1 2 3 -5 14 0
2 3 -6 13 14 0
1 -2 6 -7 15 0
4 -5 -6 -12 -14 0
-4 5 6 10 14 0
-2 -3 -4 -10 -11 0
-1 -2 8 12 -14 0
2 -3 5 10 -13 0
-4 7 -8 -10 15 0
-3 4 -7 10 -15 0
-3 -8 -10 -11 15 0
3 -4 -7 9 10 0